200
300
240
239
238
237
237
236
236
236
233
232
232
232
232
230
227
226
225
225
224
223
223
223
219
219
219
217
217
216
216
216
215
215
212
212
211
210
210
207
207
206
206
206
205
203
202
201
201
199
199
199
199
198
197
197
196
196
196
195
193
193
193
187
187
184
184
183
183
182
178
177
177
176
175
175
174
174
174
172
171
171
170
169
167
167
165
164
162
161
161
161
159
158
157
155
155
155
153
152
151
151
150
147
146
145
145
145
145
144
144
143
143
139
138
136
134
134
132
132
130
130
129
129
127
127
126
126
125
125
124
123
123
122
122
121
121
118
117
115
114
114
111
111
110
109
109
105
104
104
103
99
98
98
97
97
95
95
94
94
93
91
91
90
89
88
87
87
85
84
84
84
82
82
82
80
80
80
79
79
79
78
77
77
76
76
74
74
73
73
70
70
70
69
68
67
66
66
64
63
62
61
